sat
(model 
  (define-fun x20 () Int
    14)
  (define-fun x80 () Int
    12)
  (define-fun x82 () Int
    13)
  (define-fun x13 () Int
    3)
  (define-fun x17 () Int
    4)
  (define-fun x77 () Int
    21)
  (define-fun x87 () Int
    14)
  (define-fun x90 () Int
    22)
  (define-fun x2 () Int
    1)
  (define-fun x24 () Int
    5)
  (define-fun x50 () Int
    7)
  (define-fun x44 () Int
    6)
  (define-fun x63 () Int
    10)
  (define-fun x18 () Int
    4)
  (define-fun x30 () Int
    15)
  (define-fun x55 () Int
    20)
  (define-fun x29 () Int
    5)
  (define-fun x3 () Int
    2)
  (define-fun x49 () Int
    19)
  (define-fun x73 () Int
    11)
  (define-fun x39 () Int
    18)
  (define-fun x88 () Int
    18)
  (define-fun x37 () Int
    17)
  (define-fun x56 () Int
    8)
  (define-fun x58 () Int
    9)
  (define-fun x69 () Int
    16)
)
